Version identifier: 22.1.0.0 | 2022-03-09 | 1a383f8ce
CPXPARAM_Read_DataCheck                          1
CPXPARAM_Threads                                 1
CPXPARAM_TimeLimit                               3600
Tried aggregator 2 times.
MIP Presolve eliminated 238 rows and 15 columns.
MIP Presolve modified 3998 coefficients.
Aggregator did 40 substitutions.
Reduced MIP has 1153 rows, 185 columns, and 7534 nonzeros.
Reduced MIP has 130 binaries, 0 generals, 0 SOSs, and 0 indicators.
Presolve time = 0.03 sec. (9.39 ticks)
Probing time = 0.00 sec. (0.87 ticks)
Tried aggregator 1 time.
Detecting symmetries...
Reduced MIP has 1153 rows, 185 columns, and 7534 nonzeros.
Reduced MIP has 130 binaries, 0 generals, 0 SOSs, and 0 indicators.
Presolve time = 0.01 sec. (3.59 ticks)
Probing time = 0.00 sec. (0.81 ticks)
Clique table members: 8.
MIP emphasis: balance optimality and feasibility.
MIP search method: dynamic search.
Parallel mode: none, using 1 thread.
Root relaxation solution time = 0.01 sec. (3.41 ticks)

        Nodes                                         Cuts/
   Node  Left     Objective  IInf  Best Integer    Best Bound    ItCnt     Gap

      0     0       68.0822    34                     68.0822       72         
      0     0       68.0822    29                   Cuts: 110      196         
      0     0       68.4107    43                   Cuts: 119      375         
      0     0       68.7004    37                   Cuts: 284      472         
      0     0       68.7571    41                   Cuts: 127      548         
      0     0       68.8062    39                    Cuts: 82      588         
Detecting symmetries...
      0     0       68.8505    48                    Cuts: 60      619         
      0     0       68.8659    44                    Cuts: 59      661         
      0     0       68.8863    45                    Cuts: 57      697         
      0     0       68.9669    39                    Cuts: 64      754         
      0     0       68.9887    42                    Cuts: 24      790         
      0     0       68.9892    44                    Cuts: 27      813         
      0     0       68.9892    42                    Cuts: 88      824         
*     0+    0                           73.4043       68.9892             6.01%
Detecting symmetries...

Repeating presolve.
Tried aggregator 2 times.
MIP Presolve eliminated 665 rows and 77 columns.
MIP Presolve modified 962 coefficients.
Aggregator did 1 substitutions.
Reduced MIP has 487 rows, 107 columns, and 2446 nonzeros.
Reduced MIP has 72 binaries, 0 generals, 0 SOSs, and 0 indicators.
Presolve time = 0.01 sec. (3.18 ticks)
Probing fixed 6 vars, tightened 2 bounds.
Probing time = 0.00 sec. (0.69 ticks)
Cover probing fixed 0 vars, tightened 10 bounds.
Tried aggregator 1 time.
MIP Presolve eliminated 54 rows and 9 columns.
MIP Presolve modified 558 coefficients.
Reduced MIP has 433 rows, 98 columns, and 2149 nonzeros.
Reduced MIP has 65 binaries, 0 generals, 0 SOSs, and 0 indicators.
Presolve time = 0.01 sec. (2.29 ticks)
Probing fixed 3 vars, tightened 0 bounds.
Probing time = 0.00 sec. (0.75 ticks)
Tried aggregator 1 time.
MIP Presolve eliminated 5 rows and 3 columns.
MIP Presolve modified 134 coefficients.
Reduced MIP has 428 rows, 95 columns, and 2100 nonzeros.
Reduced MIP has 62 binaries, 0 generals, 0 SOSs, and 0 indicators.
Presolve time = 0.00 sec. (0.91 ticks)
Probing time = 0.00 sec. (0.66 ticks)
Tried aggregator 1 time.
Detecting symmetries...
Reduced MIP has 428 rows, 95 columns, and 2100 nonzeros.
Reduced MIP has 62 binaries, 0 generals, 0 SOSs, and 0 indicators.
Presolve time = 0.00 sec. (1.15 ticks)
Represolve time = 0.04 sec. (11.78 ticks)
Probing time = 0.00 sec. (0.66 ticks)
Clique table members: 273.
MIP emphasis: balance optimality and feasibility.
MIP search method: dynamic search.
Parallel mode: none, using 1 thread.
Root relaxation solution time = 0.01 sec. (2.74 ticks)

        Nodes                                         Cuts/
   Node  Left     Objective  IInf  Best Integer    Best Bound    ItCnt     Gap

*     0+    0                           73.4043       69.6048             5.18%
      0     0       69.9096    28       73.4043       69.9096      941    4.76%
      0     0       69.9281    20       73.4043      Cuts: 52      966    4.74%
      0     0       69.9417    22       73.4043      Cuts: 45      990    4.72%
      0     0       69.9513    23       73.4043      Cuts: 14     1014    4.70%
      0     0       69.9526    23       73.4043      Cuts: 72     1027    4.70%
      0     0       69.9526    19       73.4043       Cuts: 7     1030    4.70%
*     0+    0                           72.5769       69.9526             3.62%
      0     2       69.9526    19       72.5769       69.9626     1030    3.60%
Elapsed time = 0.89 sec. (346.40 ticks, tree = 0.01 MB, solutions = 2)
*    50+   30                           72.3917       70.2235             3.00%

GUB cover cuts applied:  6
Clique cuts applied:  1
Cover cuts applied:  17
Implied bound cuts applied:  10
Flow cuts applied:  4
Mixed integer rounding cuts applied:  36
Lift and project cuts applied:  1

Root node processing (before b&c):
  Real time             =    0.89 sec. (346.40 ticks)
Sequential b&c:
  Real time             =    0.12 sec. (56.48 ticks)
                          ------------
Total (root+branch&cut) =    1.01 sec. (402.88 ticks)
